Route #1: 866 478
Route #2: 394 377 212 758 323 655 313
Route #3: 673 254 703 449 144 625 729 51 796
Route #4: 854 68 516 214 819 281 800 634 632 610
Route #5: 14 61 845 101 173 82 106 247 110
Route #6: 650 613 921 686 941 108 372 202
Route #7: 486 201 695 589 537 297 218 267 320 706 541
Route #8: 916 787 463 116 70 322 319 89 831
Route #9: 487 141 802 257 559 743 911 877 970
Route #10: 21 928 93 967 986 485 223 635 694 65
Route #11: 74 142 713 540 283 712 278 407
Route #12: 751 790 28 618 943 656 306 799 445 626
Route #13: 893 384 607 630 501 253 704 459
Route #14: 527 697 775 299 235 455 461 721 898 844 753
Route #15: 489 302 762 651 517 664 915 264 718 411 117 26
Route #16: 726 213 932 122 586 148 547 532 687
Cost: 248924
